Read MPS format model from file dat/rmp/DER_24_4096_40.mps
Reading time = 0.22 seconds
: 4120 rows, 24555 columns, 551534 nonzeros
Gurobi Optimizer version 9.0.0 build v9.0.0rc2 (linux64)
Optimize a model with 4120 rows, 24555 columns and 551534 nonzeros
Model fingerprint: 0x6b0396ab
Coefficient statistics:
  Matrix range     [2e-04, 1e+01]
  Objective range  [2e-01, 1e+03]
  Bounds range     [2e+04, 2e+04]
  RHS range        [1e+00, 1e+00]
Ordering time: 0.00s

Barrier statistics:
 AA' NZ     : 9.353e+04
 Factor NZ  : 1.317e+05 (roughly 13 MBytes of memory)
 Factor Ops : 4.587e+06 (less than 1 second per iteration)
 Threads    : 1

                  Objective                Residual
Iter       Primal          Dual         Primal    Dual     Compl     Time
   0   3.36044373e+08 -2.49910296e+07  6.58e+06 1.13e-02  2.69e+05     0s
   1   9.10693301e+06 -5.60980542e+06  1.69e+05 3.64e-12  7.12e+03     0s
   2   4.00797277e+05 -3.23997331e+06  6.94e+03 3.64e-12  4.13e+02     0s
   3   3.04901478e+04 -2.07259971e+06  4.22e+02 1.82e-12  9.78e+01     0s
   4   6.20069431e+03 -1.45150562e+05  4.79e-11 3.64e-12  6.16e+00     0s
   5   5.93368296e+03  3.50197295e+03  3.03e-11 3.64e-12  9.89e-02     0s
   6   5.86583735e+03  5.46756635e+03  2.58e-11 3.64e-12  1.62e-02     0s
   7   5.84078002e+03  5.72572401e+03  5.01e-11 3.64e-12  4.68e-03     0s
   8   5.81501332e+03  5.78254536e+03  4.79e-11 1.82e-12  1.32e-03     0s
   9   5.80708477e+03  5.79119850e+03  1.18e-10 3.64e-12  6.46e-04     0s
  10   5.80346219e+03  5.79423594e+03  1.32e-10 1.82e-12  3.75e-04     0s
  11   5.80222602e+03  5.79568932e+03  1.20e-10 1.82e-12  2.66e-04     0s
  12   5.79869809e+03  5.79606571e+03  2.12e-10 1.82e-12  1.07e-04     0s
  13   5.79819450e+03  5.79670325e+03  1.93e-10 9.09e-13  6.07e-05     0s
  14   5.79795111e+03  5.79698353e+03  1.35e-10 3.64e-12  3.94e-05     0s
  15   5.79782717e+03  5.79706852e+03  1.65e-10 1.82e-12  3.09e-05     1s
  16   5.79765315e+03  5.79717168e+03  1.21e-10 1.82e-12  1.96e-05     1s
  17   5.79757800e+03  5.79725165e+03  1.45e-10 1.82e-12  1.33e-05     1s
  18   5.79739857e+03  5.79729614e+03  5.08e-10 1.82e-12  4.17e-06     1s
  19   5.79738532e+03  5.79730786e+03  1.37e-09 1.82e-12  3.15e-06     1s
  20   5.79735759e+03  5.79732336e+03  5.07e-10 1.82e-12  1.39e-06     1s
  21   5.79735474e+03  5.79733293e+03  6.59e-10 1.82e-12  8.87e-07     1s
  22   5.79734893e+03  5.79733785e+03  4.73e-09 3.64e-12  4.51e-07     1s
  23   5.79734576e+03  5.79734117e+03  1.07e-08 1.82e-12  1.87e-07     1s
  24   5.79734375e+03  5.79734246e+03  5.63e-08 3.64e-12  5.26e-08     1s
  25   5.79734284e+03  5.79734258e+03  1.25e-06 3.64e-12  1.08e-08     1s
  26   5.79734282e+03  5.79734266e+03  1.12e-06 9.09e-13  6.53e-09     1s
  27   5.79734282e+03  5.79734270e+03  1.35e-06 1.82e-12  4.93e-09     1s
  28   5.79734277e+03  5.79734272e+03  8.02e-06 1.82e-12  1.85e-09     1s
  29   5.79734276e+03  5.79734272e+03  7.15e-06 1.82e-12  1.60e-09     1s
  30   5.79734276e+03  5.79734275e+03  1.82e-05 1.82e-12  5.80e-11     1s
  31   5.79734275e+03  5.79734275e+03  1.70e-06 3.64e-12  6.10e-14     1s
  32   5.79734275e+03  5.79734275e+03  5.59e-09 3.64e-12  7.58e-17     1s

Barrier solved model in 32 iterations and 1.05 seconds
Optimal objective 5.79734275e+03

Solve time: 1.055695959
Barrier iterations: 32
